n = 50;
C = 5604;
w = [138,384,157,192,378,363,310,118,107,303,147,294,182,199,11,156,366,193,293,394,498,47,31,204,205,322,25,439,112,223,125,286,10,191,153,450,459,25,60,208,399,274,101,169,444,104,56,185,411,307];
p = [700,1930,795,970,1900,1825,1560,600,545,1525,745,1480,920,1005,65,790,1840,975,1475,1980,2500,245,165,1030,1035,1620,135,2205,570,1125,635,1440,60,965,775,2260,2305,135,310,1050,2005,1380,515,855,2230,530,290,935,2065,1545];
